c NeuroCodeBench 2.0 CNF formula with verdict Unsat
p cnf 21 105
-1 -20 -5 8 -7 0
-1 20 15 8 -12 11 10 0
1 -18 -8 3 12 7 5 -14 0
-1 20 15 -8 3 2 -16 17 -11 19 0
1 -18 -8 3 12 7 5 14 -19 -20 0
1 -18 -8 3 12 -7 5 16 -14 0
-1 20 -15 8 11 19 -3 -21 0
1 18 15 3 20 4 -7 0
1 -18 8 9 17 4 11 -3 -21 0
1 18 15 3 20 -4 -11 0
-1 -20 5 -13 -14 12 0
-1 -20 5 13 14 0
1 -18 -8 3 12 7 5 14 19 0
-1 20 -15 -8 11 0
-1 20 15 8 12 0
1 -18 8 9 17 4 -11 5 -13 6 0
1 18 15 3 -20 5 -9 17 14 0
1 -18 8 -9 16 11 -15 0
-1 20 15 -8 -3 0
1 18 15 3 -20 5 9 21 -6 0
1 18 15 3 -20 5 -9 -17 -16 0
1 -18 8 9 -17 -5 0
1 -18 8 -9 16 -11 -19 -14 0
-1 20 15 8 -12 -11 13 0
-1 20 -15 8 11 19 3 -13 0
-1 20 15 -8 3 -2 -6 0
1 -18 8 9 17 -4 0
1 18 -15 8 -14 12 0
-1 20 15 -8 3 2 -16 -17 10 0
1 -18 8 9 17 4 -11 -5 0
1 -18 -8 3 -12 -4 -13 -19 0
1 -18 -8 3 -12 -4 13 0
-1 20 -15 8 -11 -6 -18 0
1 18 15 3 -20 5 -9 -17 16 0
-1 20 15 -8 3 -2 6 21 0
-1 -20 -5 8 7 3 13 11 0
1 18 -15 8 -14 -12 2 17 0
1 -18 8 9 17 4 -11 5 -13 -6 0
1 -18 -8 3 -12 4 0
1 -18 8 9 17 4 11 3 0
1 18 -15 8 -14 -12 2 -17 0
1 18 -15 8 14 -4 0
1 -18 8 -9 16 -11 19 -17 0
-1 -20 5 13 -14 0
1 18 15 3 -20 -5 7 0
1 -18 -8 -3 -15 -2 0
1 18 15 3 -20 5 -9 17 -14 0
-1 20 15 -8 3 -2 6 -21 -7 0
1 18 15 3 -20 5 9 -21 0
1 18 -15 8 -14 -12 -2 0
-1 20 -15 8 -11 6 -3 0
1 -18 -8 3 12 -7 5 -16 0
1 18 15 -3 13 -17 16 0
1 18 -15 8 14 4 -10 0
1 18 15 3 20 -4 11 0
1 18 15 -3 13 17 0
1 -18 -8 3 12 7 5 14 -19 20 0
-1 -20 5 -13 -14 -12 0
-1 20 15 -8 3 2 16 9 14 0
-1 20 -15 8 11 -19 0
1 -18 8 9 17 4 -11 5 13 0
1 -18 -8 3 12 7 -5 -17 0
-1 20 15 8 -12 -11 -13 0
1 -18 -8 -3 -15 2 0
1 -18 8 -9 16 -11 19 17 0
-1 20 -15 8 11 19 -3 21 0
1 18 15 -3 13 -17 -16 0
1 -18 -8 -3 15 0
-1 20 15 -8 3 -2 6 -21 7 -12 0
1 -18 8 9 17 4 11 -3 21 0
-1 20 15 8 -12 11 -10 0
-1 20 -15 -8 -11 0
1 -18 -8 3 12 -7 -5 0
1 -18 -8 3 -12 -4 -13 19 0
-1 20 -15 8 -11 -6 18 -2 0
1 18 15 3 -20 -5 -7 19 17 0
1 18 15 -3 -13 0
-1 20 -15 8 -11 6 3 0
1 18 15 3 -20 -5 -7 19 -17 0
1 -18 -8 3 12 -7 5 16 14 0
1 18 -15 -8 -20 0
-1 20 15 -8 3 2 16 -9 0
-1 -20 5 -13 14 0
-1 -20 -5 8 7 -3 0
-1 20 15 -8 3 2 -16 17 11 0
1 -18 8 -9 -16 0
1 -18 -8 3 12 7 -5 17 0
-1 20 -15 8 11 19 3 13 0
-1 20 15 -8 3 2 16 9 -14 0
1 18 -15 8 14 4 10 0
-1 20 -15 8 -11 -6 18 2 0
-1 -20 -5 8 7 3 13 -11 0
1 -18 8 9 -17 5 0
-1 20 15 -8 3 -2 6 -21 7 12 0
-1 20 15 -8 3 2 -16 -17 -10 0
1 18 15 3 -20 -5 -7 -19 0
1 18 15 3 20 4 7 0
1 -18 8 -9 16 -11 -19 14 0
-1 20 15 -8 3 2 -16 17 -11 -19 0
1 18 15 3 -20 5 9 21 6 0
1 -18 8 -9 16 11 15 0
-1 -20 -5 8 7 3 -13 0
1 18 -15 -8 20 -9 0
1 18 -15 -8 20 9 0
-1 -20 -5 -8 0
